20
1 979 781
2 1678 1140
3 1188 1448
4 559 2309
5 2171 485
6 2834 2340
7 1811 1710
8 2764 1044
9 955 1968
10 153 2405
11 328 1452
12 453 1499
13 929 2708
14 2470 2640
15 2851 2802
16 1974 2492
17 742 2966
18 2833 1362
19 1544 2383
20 2610 2748
